NAME /Users/henri/Research/solvers/instances/idol-instances/robust/collection/cbp_Subramanyam_et_al_2020/CapBud_N25_0/models/uncertain_technology_matrix/
ROWS
 N  OBJ
 L  capacity
 L  c_3455
 L  c_3456
 L  c_3457
 L  c_3458
 L  c_3459
 L  c_3460
 L  c_3461
 L  c_3462
 L  c_3463
 L  c_3464
 L  c_3465
 L  c_3466
 L  c_3467
 L  c_3468
 L  c_3469
 L  c_3470
 L  c_3471
 L  c_3472
 L  c_3473
 L  c_3474
 L  c_3475
 L  c_3476
 L  c_3477
 L  c_3478
 L  c_3479
COLUMNS
    MARKER    'MARKER'                 'INTORG'
    x_0        OBJ        -9.23482
    x_0        c_3455     1
    x_0        capacity   1.84696
    x_1        OBJ        -5.17141
    x_1        c_3456     1
    x_1        capacity   1.03428
    x_2        OBJ        -4.40408
    x_2        c_3457     1
    x_2        capacity   0.880816
    x_3        OBJ        -1.32538
    x_3        c_3458     1
    x_3        capacity   0.265077
    x_4        OBJ        -2.34524
    x_4        c_3459     1
    x_4        capacity   0.469048
    x_5        OBJ        -3.0629
    x_5        c_3460     1
    x_5        capacity   0.61258
    x_6        OBJ        -3.28243
    x_6        c_3461     1
    x_6        capacity   0.656485
    x_7        OBJ        -0.511882
    x_7        c_3462     1
    x_7        capacity   0.102376
    x_8        OBJ        -2.32454
    x_8        c_3463     1
    x_8        capacity   0.464907
    x_9        OBJ        -7.34486
    x_9        c_3464     1
    x_9        capacity   1.46897
    x_10       OBJ        -0.79281
    x_10       c_3465     1
    x_10       capacity   0.158562
    x_11       OBJ        -2.07351
    x_11       c_3466     1
    x_11       capacity   0.414701
    x_12       OBJ        -1.69633
    x_12       c_3467     1
    x_12       capacity   0.339267
    x_13       OBJ        -8.55824
    x_13       c_3468     1
    x_13       capacity   1.71165
    x_14       OBJ        -7.03545
    x_14       c_3469     1
    x_14       capacity   1.40709
    x_15       OBJ        -2.27587
    x_15       c_3470     1
    x_15       capacity   0.455174
    x_16       OBJ        -7.8933
    x_16       c_3471     1
    x_16       capacity   1.57866
    x_17       OBJ        -4.92029
    x_17       c_3472     1
    x_17       capacity   0.984058
    x_18       OBJ        -0.456857
    x_18       c_3473     1
    x_18       capacity   0.0913714
    x_19       OBJ        -5.4479
    x_19       c_3474     1
    x_19       capacity   1.08958
    x_20       OBJ        -4.52841
    x_20       c_3475     1
    x_20       capacity   0.905682
    x_21       OBJ        -6.40788
    x_21       c_3476     1
    x_21       capacity   1.28158
    x_22       OBJ        -4.52003
    x_22       c_3477     1
    x_22       capacity   0.904007
    x_23       OBJ        -9.48717
    x_23       c_3478     1
    x_23       capacity   1.89743
    x_24       OBJ        -6.543
    x_24       c_3479     1
    x_24       capacity   1.3086
    y_0        OBJ        -7.38785
    y_0        c_3455     1
    y_0        capacity   1.84696
    y_1        OBJ        -4.13713
    y_1        c_3456     1
    y_1        capacity   1.03428
    y_2        OBJ        -3.52327
    y_2        c_3457     1
    y_2        capacity   0.880816
    y_3        OBJ        -1.06031
    y_3        c_3458     1
    y_3        capacity   0.265077
    y_4        OBJ        -1.87619
    y_4        c_3459     1
    y_4        capacity   0.469048
    y_5        OBJ        -2.45032
    y_5        c_3460     1
    y_5        capacity   0.61258
    y_6        OBJ        -2.62594
    y_6        c_3461     1
    y_6        capacity   0.656485
    y_7        OBJ        -0.409505
    y_7        c_3462     1
    y_7        capacity   0.102376
    y_8        OBJ        -1.85963
    y_8        c_3463     1
    y_8        capacity   0.464907
    y_9        OBJ        -5.87588
    y_9        c_3464     1
    y_9        capacity   1.46897
    y_10       OBJ        -0.634248
    y_10       c_3465     1
    y_10       capacity   0.158562
    y_11       OBJ        -1.65881
    y_11       c_3466     1
    y_11       capacity   0.414701
    y_12       OBJ        -1.35707
    y_12       c_3467     1
    y_12       capacity   0.339267
    y_13       OBJ        -6.84659
    y_13       c_3468     1
    y_13       capacity   1.71165
    y_14       OBJ        -5.62836
    y_14       c_3469     1
    y_14       capacity   1.40709
    y_15       OBJ        -1.8207
    y_15       c_3470     1
    y_15       capacity   0.455174
    y_16       OBJ        -6.31464
    y_16       c_3471     1
    y_16       capacity   1.57866
    y_17       OBJ        -3.93623
    y_17       c_3472     1
    y_17       capacity   0.984058
    y_18       OBJ        -0.365486
    y_18       c_3473     1
    y_18       capacity   0.0913714
    y_19       OBJ        -4.35832
    y_19       c_3474     1
    y_19       capacity   1.08958
    y_20       OBJ        -3.62273
    y_20       c_3475     1
    y_20       capacity   0.905682
    y_21       OBJ        -5.1263
    y_21       c_3476     1
    y_21       capacity   1.28158
    y_22       OBJ        -3.61603
    y_22       c_3477     1
    y_22       capacity   0.904007
    y_23       OBJ        -7.58974
    y_23       c_3478     1
    y_23       capacity   1.89743
    y_24       OBJ        -5.2344
    y_24       c_3479     1
    y_24       capacity   1.3086
    MARKER    'MARKER'                 'INTEND'
RHS
    RHS       capacity   55.8223
    RHS       c_3455     1
    RHS       c_3456     1
    RHS       c_3457     1
    RHS       c_3458     1
    RHS       c_3459     1
    RHS       c_3460     1
    RHS       c_3461     1
    RHS       c_3462     1
    RHS       c_3463     1
    RHS       c_3464     1
    RHS       c_3465     1
    RHS       c_3466     1
    RHS       c_3467     1
    RHS       c_3468     1
    RHS       c_3469     1
    RHS       c_3470     1
    RHS       c_3471     1
    RHS       c_3472     1
    RHS       c_3473     1
    RHS       c_3474     1
    RHS       c_3475     1
    RHS       c_3476     1
    RHS       c_3477     1
    RHS       c_3478     1
    RHS       c_3479     1
BOUNDS
 LI BND       x_0        0
 UI BND       x_0        1
 LI BND       x_1        0
 UI BND       x_1        1
 LI BND       x_2        0
 UI BND       x_2        1
 LI BND       x_3        0
 UI BND       x_3        1
 LI BND       x_4        0
 UI BND       x_4        1
 LI BND       x_5        0
 UI BND       x_5        1
 LI BND       x_6        0
 UI BND       x_6        1
 LI BND       x_7        0
 UI BND       x_7        1
 LI BND       x_8        0
 UI BND       x_8        1
 LI BND       x_9        0
 UI BND       x_9        1
 LI BND       x_10       0
 UI BND       x_10       1
 LI BND       x_11       0
 UI BND       x_11       1
 LI BND       x_12       0
 UI BND       x_12       1
 LI BND       x_13       0
 UI BND       x_13       1
 LI BND       x_14       0
 UI BND       x_14       1
 LI BND       x_15       0
 UI BND       x_15       1
 LI BND       x_16       0
 UI BND       x_16       1
 LI BND       x_17       0
 UI BND       x_17       1
 LI BND       x_18       0
 UI BND       x_18       1
 LI BND       x_19       0
 UI BND       x_19       1
 LI BND       x_20       0
 UI BND       x_20       1
 LI BND       x_21       0
 UI BND       x_21       1
 LI BND       x_22       0
 UI BND       x_22       1
 LI BND       x_23       0
 UI BND       x_23       1
 LI BND       x_24       0
 UI BND       x_24       1
 LI BND       y_0        0
 UI BND       y_0        1
 LI BND       y_1        0
 UI BND       y_1        1
 LI BND       y_2        0
 UI BND       y_2        1
 LI BND       y_3        0
 UI BND       y_3        1
 LI BND       y_4        0
 UI BND       y_4        1
 LI BND       y_5        0
 UI BND       y_5        1
 LI BND       y_6        0
 UI BND       y_6        1
 LI BND       y_7        0
 UI BND       y_7        1
 LI BND       y_8        0
 UI BND       y_8        1
 LI BND       y_9        0
 UI BND       y_9        1
 LI BND       y_10       0
 UI BND       y_10       1
 LI BND       y_11       0
 UI BND       y_11       1
 LI BND       y_12       0
 UI BND       y_12       1
 LI BND       y_13       0
 UI BND       y_13       1
 LI BND       y_14       0
 UI BND       y_14       1
 LI BND       y_15       0
 UI BND       y_15       1
 LI BND       y_16       0
 UI BND       y_16       1
 LI BND       y_17       0
 UI BND       y_17       1
 LI BND       y_18       0
 UI BND       y_18       1
 LI BND       y_19       0
 UI BND       y_19       1
 LI BND       y_20       0
 UI BND       y_20       1
 LI BND       y_21       0
 UI BND       y_21       1
 LI BND       y_22       0
 UI BND       y_22       1
 LI BND       y_23       0
 UI BND       y_23       1
 LI BND       y_24       0
 UI BND       y_24       1
ENDATA
